3 5
152 177 191 
0 38 28 57 47 75 65 98 23 75 95 25 36 3
1 63 53 47 37 24 14 87 20 31 1 96 82 1
2 67 57 109 99 44 34 36 34 68 85 77 91 3
3 19 9 36 26 44 34 42 82 33 70 9 82 1
4 53 43 23 13 102 92 94 79 54 65 71 68 2
